[25038, 24648, 24216, 23688, 22728, 20380, 19668, 18480, 18040, 15872, 14432, 14432, 14432, 14336, 14432, 12698, 12698, 12460, 12460, 12460, 11364, 10296, 9732, 9732, 9732, 9732, 7168, 7168, 7136, 6832, 6448, 6448, 6448, 6018, 6018, 6018, 6018, 5814, 5814, 5706, 5238, 5238, 4842, 4842, 4842, 3492, 3492, 3492, 3492, 3492, 3492, 3140, 3140, 3140, 3140, 3140, 3140, 1844, 1844, 1844, 1844, 1844, 1844, 1844, 1774, 1766, 1690, 1690, 1554, 1554, 1554, 1554, 1554, 1542, 1554, 1554, 1554, 1554, 1518, 1554, 1554, 1554, 1554, 1554, 1554, 1554, 1520, 1520, 1520, 1520, 1520, 1520, 1518, 1518, 1500, 1500, 1486, 1486, 1486, 1486, 1486, 1486, 1478, 1478, 1478, 1478, 1478, 1468, 1468, 1462, 1462, 1462, 1462, 1462, 1462, 1462, 1462, 1462, 1462, 1462, 1462, 1462, 1462, 1462, 1462, 1462, 1462, 1462, 1462, 1462, 1462, 1462, 1462, 1462, 1462, 1462, 1462, 1462, 1462, 1462, 1462, 1462, 1462, 1462, 1462, 1462, 1462, 1462, 1462, 1462, 1462, 1462, 1462, 1462, 1462, 1462, 1462, 1462, 1462, 1462, 1462, 1462, 1462, 1462, 1462, 1462, 1462, 1462, 1462, 1462, 1462, 1462, 1462, 1462, 1462, 1462, 1462, 1462, 1462, 1462, 1462, 1462, 1462, 1462, 1462, 1462, 1462, 1462, 1462, 1462, 1462, 1462, 1462, 1462, 1462, 1462, 1462, 1462, 1462, 1462]